50

100 18 311
99 28 350
94 2 288
92 17 377
92 8 344
92 4 344
89 9 291
88 24 400
85 1 394
83 15 281
83 2 335
80 17 347
79 16 363
79 15 312
79 17 277
79 9 352
77 17 364
74 17 361
74 8 357
73 20 340
71 0 234
70 7 213
69 13 330
68 7 298
65 4 208
62 19 379
62 8 397
62 16 391
61 5 216
61 13 184
58 9 332
56 0 301
56 13 258
55 16 200
55 15 264
55 7 350
48 9 349
47 0 231
46 9 163
46 11 322
44 6 391
43 9 253
43 0 257
43 4 371
40 3 245
40 8 355
36 9 128
35 0 214
32 6 112
30 3 240
